Version identifier: 20.1.0.0 | 2020-11-10 | 9bedb6d68
Tried aggregator 2 times.
MIP Presolve eliminated 1294 rows and 697 columns.
MIP Presolve modified 3182 coefficients.
Aggregator did 146 substitutions.
Reduced MIP has 1909 rows, 1512 columns, and 6308 nonzeros.
Reduced MIP has 325 binaries, 1187 generals, 0 SOSs, and 0 indicators.
Presolve time = 0.02 sec. (7.39 ticks)
Found incumbent of value 3644.000000 after 0.04 sec. (15.14 ticks)
Probing fixed 40 vars, tightened 318 bounds.
Probing time = 0.00 sec. (1.34 ticks)
Tried aggregator 2 times.
Detecting symmetries...
MIP Presolve eliminated 824 rows and 48 columns.
MIP Presolve modified 149 coefficients.
Aggregator did 4 substitutions.
Reduced MIP has 1081 rows, 1460 columns, and 3620 nonzeros.
Reduced MIP has 383 binaries, 1077 generals, 0 SOSs, and 0 indicators.
Presolve time = 0.01 sec. (4.91 ticks)
Probing time = 0.00 sec. (0.36 ticks)
Clique table members: 125.
MIP emphasis: balance optimality and feasibility.
MIP search method: dynamic search.
Parallel mode: deterministic, using up to 24 threads.
Root relaxation solution time = 0.01 sec. (3.35 ticks)

        Nodes                                         Cuts/
   Node  Left     Objective  IInf  Best Integer    Best Bound    ItCnt     Gap

*     0+    0                         3644.0000        0.0000           100.00%
      0     0        0.0000    48     3644.0000        0.0000      378  100.00%
      0     0        0.0000    46     3644.0000      Cuts: 71      452  100.00%
      0     0        0.0000    62     3644.0000     Cuts: 111      617  100.00%
*     0+    0                           37.0000        0.0000           100.00%
*     0+    0                           20.0000        0.0000           100.00%
      0     0        0.5020   232       20.0000      Cuts: 33      920   45.00%
*     0+    0                           19.0000       11.0000            42.11%
      0     0        cutoff             19.0000       19.0000      920    0.00%
Elapsed time = 0.72 sec. (129.32 ticks, tree = 0.01 MB, solutions = 4)

Implied bound cuts applied:  35
Flow cuts applied:  1
Mixed integer rounding cuts applied:  14
Zero-half cuts applied:  50
Lift and project cuts applied:  11
Gomory fractional cuts applied:  18

Root node processing (before b&c):
  Real time             =    0.72 sec. (129.46 ticks)
Parallel b&c, 24 threads:
  Real time             =    0.00 sec. (0.00 ticks)
  Sync time (average)   =    0.00 sec.
  Wait time (average)   =    0.00 sec.
                          ------------
Total (root+branch&cut) =    0.72 sec. (129.46 ticks)

Solution status = Optimal
Solution LB = 19
Solution UB = 19
Runtime = 0.728876 seconds
	Command being timed: "/home/min/git_repos/CS598MEBProject/CNT-ILP/build/cnt -s 2 ./output/k8_n20/simC_c1_k8_n20_u3_s1_del02.input-left.cnp"
	User time (seconds): 8.83
	System time (seconds): 0.12
	Percent of CPU this job got: 1155%
	Elapsed (wall clock) time (h:mm:ss or m:ss): 0:00.77
	Average shared text size (kbytes): 0
	Average unshared data size (kbytes): 0
	Average stack size (kbytes): 0
	Average total size (kbytes): 0
	Maximum resident set size (kbytes): 115016
	Average resident set size (kbytes): 0
	Major (requiring I/O) page faults: 0
	Minor (reclaiming a frame) page faults: 26112
	Voluntary context switches: 5643
	Involuntary context switches: 1140
	Swaps: 0
	File system inputs: 0
	File system outputs: 16
	Socket messages sent: 0
	Socket messages received: 0
	Signals delivered: 0
	Page size (bytes): 4096
	Exit status: 0
